\* SchedulingCourses *\
Minimize
OBJ: - 2 y(ABS_ALG) - 60 y(ALL_SOC_SCI) - 20 y(ART_CON) - y(BB_4190)
 - y(BCB_4004) - 50 y(BUS_SCH_ELECT) - y(CALC_I) - y(CALC_II) - y(CALC_III)
 - 2 y(CALC_IV) - y(CE_3022) - 30 y(CH_ANY) - y(CS_2022) - 3 y(CS_21XX)
 - y(CS_3043) - 41 y(CS_DEPT) - y(DIF_EQ) - 2 y(DS_4635) - 20 y(DS_DEPT)
 - y(ECE_2112) - y(ECON_2910) - 30 y(ES_ANY) - 20 y(FLG_CON) - 20 y(HI_CON)
 - y(HUA_PROJ) - y(ID_2050) - 100 y(IQP_OFF_CM) - 25 y(IQP_ON_CM) - y(MA_1033)
 - y(MA_2631) - 27 y(MA_3000P) - y(MA_3631) - 52 y(MA_ANY) - 2 y(NUM_METHD)
 - y(OIE_3600) - 2 y(OIE_CHOICE) - 7 y(OIE_CORE) - 50 y(OIE_ENG_ELECT)
 - 3 y(OIE_ENG_RESTR) - y(OIE_ES_RESTR) - 7 y(OIE_MA_ELECT)
 - 4 y(OIE_MIS_ELECT) - 2 y(OIE_OTHER) - 30 y(OTHR_SCI) - 30 y(PH_ANY)
 - 2 y(PROB_STATS) - 20 y(PY_CON) - 2 y(REAL_ALYS) - y(REG_SCI_ES)
 - y(STATS_1) - y(TRANSIT_LL) - 6 y(TRANSIT_R) - 20 y(WR_CON)
Subject To
SR(HUA_ART_MAX): - 3 x(ART_CON)(HUA_CORE) >= -12
SR(HUA_HI_MAX): - 3 x(HI_CON)(HUA_CORE) >= -12
SR(HUA_PY_MAX): - 3 x(PY_CON)(HUA_CORE) >= -12
SR(HUA_WR_MAX): - 3 x(WR_CON)(HUA_CORE) >= -12
SR(MA_CSDS_MAX): - 3 x(CS_2022)(MA_CS_DS) - 3 x(CS_2022)(MA_REL_CR)
 - 3 x(CS_3043)(MA_CS_DS) - 3 x(CS_3043)(MA_REL_CR) >= -3
SR(MA_REL_CR_MAX): - 3 x(BB_4190)(MA_REL_CR) - 3 x(BUS_SCH_ELECT)(MA_REL_CR)
 - 3 x(CH_ANY)(MA_REL_CR) - 3 x(CS_2022)(MA_REL_CR) - 3 x(CS_21XX)(MA_REL_CR)
 - 3 x(CS_3043)(MA_REL_CR) - 3 x(CS_DEPT)(MA_REL_CR) - 3 x(DS_4635)(MA_REL_CR)
 - 3 x(DS_DEPT)(MA_REL_CR) - 3 x(ECON_2910)(MA_REL_CR)
 - 3 x(ES_ANY)(MA_REL_CR) - 3 x(OIE_3600)(MA_REL_CR)
 - 3 x(OIE_CHOICE)(MA_REL_CR) - 3 x(OIE_CORE)(MA_REL_CR)
 - 3 x(OIE_ENG_RESTR)(MA_REL_CR) - 3 x(OIE_ES_RESTR)(MA_REL_CR)
 - 3 x(OIE_OTHER)(MA_REL_CR) - 3 x(OTHR_SCI)(MA_REL_CR)
 - 3 x(PH_ANY)(MA_REL_CR) - 3 x(REG_SCI_ES)(MA_REL_CR) >= -7.5
SR(MA_TRANSIT_MAX): - 3 x(MA_1033)(MA_TRANSIT) - 3 x(TRANSIT_LL)(MA_TRANSIT)
 >= -3
SR(OIE_CH): 3 x(BB_4190)(OIE_SCI) + 3 x(CH_ANY)(OIE_SCI) >= 3
SR(OIE_ELECT_RESTR): - 3 x(CS_3043)(OIE_TECH_ELECT) >= 0
SR(OIE_ES_RESTR): - 3 x(OIE_ES_RESTR)(OIE_ES)
 - 3 x(OIE_ES_RESTR)(OIE_TECH_ELECT) >= 0
SR(OIE_PH): 3 x(ECE_2112)(OIE_SCI) + 3 x(PH_ANY)(OIE_SCI)
 + 3 x(REG_SCI_ES)(OIE_SCI) >= 3
SR(ON_OFF_CAMPUS): 3 x(ID_2050)(SOC_SCI_REQ) + 9 x(IQP_ON_CM)(IQP) >= 3
SR2(HUA_DEPTH)(C0): - 9 SR2(HUA_DEPTH_0) + 3 x(ART_CON)(HUA_CORE) >= -0.1
SR2(HUA_DEPTH)(C1): - 9 SR2(HUA_DEPTH_1) + 3 x(WR_CON)(HUA_CORE) >= -0.1
SR2(HUA_DEPTH)(C2): - 9 SR2(HUA_DEPTH_2) + 3 x(HI_CON)(HUA_CORE) >= -0.1
SR2(HUA_DEPTH)(C3): - 9 SR2(HUA_DEPTH_3) + 3 x(PY_CON)(HUA_CORE) >= -0.1
SR2(HUA_DEPTH)(C4): - 9 SR2(HUA_DEPTH_4) + 3 x(FLG_CON)(HUA_CORE) >= -0.1
SR2_total(HUA_DEPTH): SR2(HUA_DEPTH_0) + SR2(HUA_DEPTH_1) + SR2(HUA_DEPTH_2)
 + SR2(HUA_DEPTH_3) + SR2(HUA_DEPTH_4) >= 1
credMax: 3 y(ABS_ALG) + 3 y(ALL_SOC_SCI) + 3 y(ART_CON) + 3 y(BB_4190)
 + 3 y(BCB_4004) + 3 y(BUS_SCH_ELECT) + 3 y(CALC_I) + 3 y(CALC_II)
 + 3 y(CALC_III) + 3 y(CALC_IV) + 3 y(CE_3022) + 3 y(CH_ANY) + 3 y(CS_2022)
 + 3 y(CS_21XX) + 3 y(CS_3043) + 3 y(CS_DEPT) + 3 y(DIF_EQ) + 3 y(DS_4635)
 + 3 y(DS_DEPT) + 3 y(ECE_2112) + 3 y(ECON_2910) + 3 y(ES_ANY) + 3 y(FLG_CON)
 + 3 y(HI_CON) + 3 y(HUA_PROJ) + 3 y(ID_2050) + 9 y(IQP_OFF_CM)
 + 9 y(IQP_ON_CM) + 3 y(MA_1033) + 3 y(MA_2631) + 3 y(MA_3000P) + 3 y(MA_3631)
 + 3 y(MA_ANY) + 3 y(NUM_METHD) + 3 y(OIE_3600) + 3 y(OIE_CHOICE)
 + 3 y(OIE_CORE) + 3 y(OIE_ENG_ELECT) + 3 y(OIE_ENG_RESTR) + 3 y(OIE_ES_RESTR)
 + 3 y(OIE_MA_ELECT) + 3 y(OIE_MIS_ELECT) + 3 y(OIE_OTHER) + 3 y(OTHR_SCI)
 + 3 y(PH_ANY) + 3 y(PROB_STATS) + 3 y(PY_CON) + 3 y(REAL_ALYS)
 + 3 y(REG_SCI_ES) + 3 y(STATS_1) + 3 y(TRANSIT_LL) + 3 y(TRANSIT_R)
 + 3 y(WR_CON) + 0.01 z(HUA_CORE) + 0.01 z(HUA_PROJ) + 0.01 z(IQP)
 + 0.01 z(MA_ABSTR) + 0.01 z(MA_CS_DS) + 0.01 z(MA_GEN_SCI) + 0.01 z(MA_INTRO)
 + 0.01 z(MA_NMTHD) + 0.01 z(MA_REAL) + 0.01 z(MA_REL_CR) + 0.01 z(MA_TRANSIT)
 + 0.01 z(MA_UPRLVL) + 0.01 z(OIE_44_34) + 0.01 z(OIE_CALC_I)
 + 0.01 z(OIE_CALC_II) + 0.01 z(OIE_CALC_III) + 0.01 z(OIE_CALC_IV)
 + 0.01 z(OIE_CORE) + 0.01 z(OIE_CS) + 0.01 z(OIE_DIFEQ) + 0.01 z(OIE_ELECT)
 + 0.01 z(OIE_ES) + 0.01 z(OIE_MA_SCI) + 0.01 z(OIE_SCI) + 0.01 z(OIE_STATS_I)
 + 0.01 z(OIE_STATS_II) + 0.01 z(OIE_TECH_ELECT) + 0.01 z(SOC_SCI_REQ) = 132
reqMin(HUA_CORE): 3 x(ART_CON)(HUA_CORE) + 3 x(FLG_CON)(HUA_CORE)
 + 3 x(HI_CON)(HUA_CORE) + 3 x(PY_CON)(HUA_CORE) + 3 x(WR_CON)(HUA_CORE)
 - z(HUA_CORE) = 15
reqMin(HUA_PROJ): 3 x(HUA_PROJ)(HUA_PROJ) - z(HUA_PROJ) = 3
reqMin(IQP): 9 x(IQP_OFF_CM)(IQP) + 9 x(IQP_ON_CM)(IQP) - z(IQP) = 9
reqMin(MA_ABSTR): 3 x(ABS_ALG)(MA_ABSTR) - z(MA_ABSTR) = 3
reqMin(MA_CS_DS): 3 x(CS_2022)(MA_CS_DS) + 3 x(CS_21XX)(MA_CS_DS)
 + 3 x(CS_3043)(MA_CS_DS) + 3 x(CS_DEPT)(MA_CS_DS) + 3 x(DS_4635)(MA_CS_DS)
 + 3 x(DS_DEPT)(MA_CS_DS) + 3 x(OIE_ENG_RESTR)(MA_CS_DS) - z(MA_CS_DS) = 6
reqMin(MA_GEN_SCI): 3 x(BB_4190)(MA_GEN_SCI) + 3 x(CH_ANY)(MA_GEN_SCI)
 + 3 x(ES_ANY)(MA_GEN_SCI) + 3 x(OIE_ES_RESTR)(MA_GEN_SCI)
 + 3 x(OTHR_SCI)(MA_GEN_SCI) + 3 x(PH_ANY)(MA_GEN_SCI)
 + 3 x(REG_SCI_ES)(MA_GEN_SCI) - z(MA_GEN_SCI) = 6
reqMin(MA_INTRO): 3 x(ABS_ALG)(MA_INTRO) + 3 x(CALC_I)(MA_INTRO)
 + 3 x(CALC_II)(MA_INTRO) + 3 x(CALC_III)(MA_INTRO) + 3 x(CALC_IV)(MA_INTRO)
 + 3 x(CS_2022)(MA_INTRO) + 3 x(DIF_EQ)(MA_INTRO) + 3 x(DS_4635)(MA_INTRO)
 + 3 x(MA_1033)(MA_INTRO) + 3 x(MA_2631)(MA_INTRO) + 3 x(MA_3000P)(MA_INTRO)
 + 3 x(MA_3631)(MA_INTRO) + 3 x(MA_ANY)(MA_INTRO) + 3 x(NUM_METHD)(MA_INTRO)
 + 3 x(OIE_MA_ELECT)(MA_INTRO) + 3 x(PROB_STATS)(MA_INTRO)
 + 3 x(REAL_ALYS)(MA_INTRO) + 3 x(STATS_1)(MA_INTRO)
 + 3 x(TRANSIT_LL)(MA_INTRO) + 3 x(TRANSIT_R)(MA_INTRO) - z(MA_INTRO) = 24
reqMin(MA_NMTHD): 3 x(NUM_METHD)(MA_NMTHD) - z(MA_NMTHD) = 3
reqMin(MA_REAL): 3 x(REAL_ALYS)(MA_REAL) - z(MA_REAL) = 6
reqMin(MA_REL_CR): 3 x(BB_4190)(MA_REL_CR) + 3 x(BUS_SCH_ELECT)(MA_REL_CR)
 + 3 x(CH_ANY)(MA_REL_CR) + 3 x(CS_2022)(MA_REL_CR) + 3 x(CS_21XX)(MA_REL_CR)
 + 3 x(CS_3043)(MA_REL_CR) + 3 x(CS_DEPT)(MA_REL_CR) + 3 x(DS_4635)(MA_REL_CR)
 + 3 x(DS_DEPT)(MA_REL_CR) + 3 x(ECON_2910)(MA_REL_CR)
 + 3 x(ES_ANY)(MA_REL_CR) + 3 x(OIE_3600)(MA_REL_CR)
 + 3 x(OIE_CHOICE)(MA_REL_CR) + 3 x(OIE_CORE)(MA_REL_CR)
 + 3 x(OIE_ENG_RESTR)(MA_REL_CR) + 3 x(OIE_ES_RESTR)(MA_REL_CR)
 + 3 x(OIE_OTHER)(MA_REL_CR) + 3 x(OTHR_SCI)(MA_REL_CR)
 + 3 x(PH_ANY)(MA_REL_CR) + 3 x(REG_SCI_ES)(MA_REL_CR) - z(MA_REL_CR) = 6
reqMin(MA_TRANSIT): 3 x(ABS_ALG)(MA_TRANSIT) + 3 x(MA_1033)(MA_TRANSIT)
 + 3 x(MA_2631)(MA_TRANSIT) + 3 x(MA_3631)(MA_TRANSIT)
 + 3 x(REAL_ALYS)(MA_TRANSIT) + 3 x(TRANSIT_LL)(MA_TRANSIT)
 + 3 x(TRANSIT_R)(MA_TRANSIT) - z(MA_TRANSIT) = 12
reqMin(MA_UPRLVL): 3 x(ABS_ALG)(MA_UPRLVL) + 3 x(DS_4635)(MA_UPRLVL)
 + 3 x(MA_3000P)(MA_UPRLVL) + 3 x(MA_3631)(MA_UPRLVL)
 + 3 x(NUM_METHD)(MA_UPRLVL) + 3 x(OIE_MA_ELECT)(MA_UPRLVL)
 + 3 x(REAL_ALYS)(MA_UPRLVL) - z(MA_UPRLVL) = 9
reqMin(OIE_44_34): 3 x(OIE_CHOICE)(OIE_44_34) - z(OIE_44_34) = 3
reqMin(OIE_CALC_I): 3 x(CALC_I)(OIE_CALC_I) - z(OIE_CALC_I) = 3
reqMin(OIE_CALC_II): 3 x(CALC_II)(OIE_CALC_II) - z(OIE_CALC_II) = 3
reqMin(OIE_CALC_III): 3 x(CALC_III)(OIE_CALC_III) + 3 x(MA_1033)(OIE_CALC_III)
 - z(OIE_CALC_III) = 3
reqMin(OIE_CALC_IV): 3 x(CALC_IV)(OIE_CALC_IV) - z(OIE_CALC_IV) = 3
reqMin(OIE_CORE): 3 x(OIE_CORE)(OIE_CORE) - z(OIE_CORE) = 21
reqMin(OIE_CS): 3 x(CS_21XX)(OIE_CS) + 3 x(OIE_3600)(OIE_CS) - z(OIE_CS) = 3
reqMin(OIE_DIFEQ): 3 x(DIF_EQ)(OIE_DIFEQ) - z(OIE_DIFEQ) = 3
reqMin(OIE_ELECT): 3 x(MA_3631)(OIE_ELECT) + 3 x(OIE_3600)(OIE_ELECT)
 + 3 x(OIE_CHOICE)(OIE_ELECT) + 3 x(OIE_MA_ELECT)(OIE_ELECT)
 + 3 x(OIE_MIS_ELECT)(OIE_ELECT) + 3 x(OIE_OTHER)(OIE_ELECT) - z(OIE_ELECT)
 = 9
reqMin(OIE_ES): 3 x(ES_ANY)(OIE_ES) + 3 x(OIE_ES_RESTR)(OIE_ES) - z(OIE_ES)
 = 3
reqMin(OIE_MA_SCI): 3 x(ABS_ALG)(OIE_MA_SCI) + 3 x(BB_4190)(OIE_MA_SCI)
 + 3 x(BCB_4004)(OIE_MA_SCI) + 3 x(CH_ANY)(OIE_MA_SCI)
 + 3 x(CS_2022)(OIE_MA_SCI) + 3 x(DS_4635)(OIE_MA_SCI)
 + 3 x(ECE_2112)(OIE_MA_SCI) + 3 x(MA_2631)(OIE_MA_SCI)
 + 3 x(MA_3000P)(OIE_MA_SCI) + 3 x(MA_3631)(OIE_MA_SCI)
 + 3 x(MA_ANY)(OIE_MA_SCI) + 3 x(NUM_METHD)(OIE_MA_SCI)
 + 3 x(OIE_MA_ELECT)(OIE_MA_SCI) + 3 x(OTHR_SCI)(OIE_MA_SCI)
 + 3 x(PH_ANY)(OIE_MA_SCI) + 3 x(PROB_STATS)(OIE_MA_SCI)
 + 3 x(REAL_ALYS)(OIE_MA_SCI) + 3 x(REG_SCI_ES)(OIE_MA_SCI)
 + 3 x(TRANSIT_LL)(OIE_MA_SCI) + 3 x(TRANSIT_R)(OIE_MA_SCI) - z(OIE_MA_SCI)
 = 6
reqMin(OIE_SCI): 3 x(BB_4190)(OIE_SCI) + 3 x(CH_ANY)(OIE_SCI)
 + 3 x(ECE_2112)(OIE_SCI) + 3 x(PH_ANY)(OIE_SCI) + 3 x(REG_SCI_ES)(OIE_SCI)
 - z(OIE_SCI) = 9
reqMin(OIE_STATS_I): 3 x(STATS_1)(OIE_STATS_I) - z(OIE_STATS_I) = 3
reqMin(OIE_STATS_II): 3 x(MA_2631)(OIE_STATS_II)
 + 3 x(PROB_STATS)(OIE_STATS_II) - z(OIE_STATS_II) = 3
reqMin(OIE_TECH_ELECT): 3 x(CS_2022)(OIE_TECH_ELECT)
 + 3 x(CS_21XX)(OIE_TECH_ELECT) + 3 x(CS_3043)(OIE_TECH_ELECT)
 + 3 x(CS_DEPT)(OIE_TECH_ELECT) + 3 x(ECE_2112)(OIE_TECH_ELECT)
 + 3 x(ES_ANY)(OIE_TECH_ELECT) + 3 x(MA_3631)(OIE_TECH_ELECT)
 + 3 x(NUM_METHD)(OIE_TECH_ELECT) + 3 x(OIE_3600)(OIE_TECH_ELECT)
 + 3 x(OIE_CHOICE)(OIE_TECH_ELECT) + 3 x(OIE_ENG_ELECT)(OIE_TECH_ELECT)
 + 3 x(OIE_ES_RESTR)(OIE_TECH_ELECT) + 3 x(OIE_MA_ELECT)(OIE_TECH_ELECT)
 + 3 x(OIE_MIS_ELECT)(OIE_TECH_ELECT) + 3 x(OIE_OTHER)(OIE_TECH_ELECT)
 - z(OIE_TECH_ELECT) = 6
reqMin(SOC_SCI_REQ): 3 x(ALL_SOC_SCI)(SOC_SCI_REQ)
 + 3 x(ECON_2910)(SOC_SCI_REQ) + 3 x(ID_2050)(SOC_SCI_REQ) - z(SOC_SCI_REQ)
 = 6
setY1(ABS_ALG): x(ABS_ALG)(OIE_MA_SCI) - y(ABS_ALG) <= 0
setY1(ALL_SOC_SCI): x(ALL_SOC_SCI)(SOC_SCI_REQ) - y(ALL_SOC_SCI) <= 0
setY1(ART_CON): x(ART_CON)(HUA_CORE) - y(ART_CON) <= 0
setY1(BB_4190): x(BB_4190)(OIE_MA_SCI) + x(BB_4190)(OIE_SCI) - y(BB_4190) <= 0
setY1(BCB_4004): x(BCB_4004)(OIE_MA_SCI) - y(BCB_4004) <= 0
setY1(CALC_I): x(CALC_I)(OIE_CALC_I) - y(CALC_I) <= 0
setY1(CALC_II): x(CALC_II)(OIE_CALC_II) - y(CALC_II) <= 0
setY1(CALC_III): x(CALC_III)(OIE_CALC_III) - y(CALC_III) <= 0
setY1(CALC_IV): x(CALC_IV)(OIE_CALC_IV) - y(CALC_IV) <= 0
setY1(CH_ANY): x(CH_ANY)(OIE_MA_SCI) + x(CH_ANY)(OIE_SCI) - y(CH_ANY) <= 0
setY1(CS_2022): x(CS_2022)(OIE_MA_SCI) + x(CS_2022)(OIE_TECH_ELECT)
 - y(CS_2022) <= 0
setY1(CS_21XX): x(CS_21XX)(OIE_CS) + x(CS_21XX)(OIE_TECH_ELECT) - y(CS_21XX)
 <= 0
setY1(CS_3043): x(CS_3043)(OIE_TECH_ELECT) - y(CS_3043) <= 0
setY1(CS_DEPT): x(CS_DEPT)(OIE_TECH_ELECT) - y(CS_DEPT) <= 0
setY1(DIF_EQ): x(DIF_EQ)(OIE_DIFEQ) - y(DIF_EQ) <= 0
setY1(DS_4635): x(DS_4635)(OIE_MA_SCI) - y(DS_4635) <= 0
setY1(ECE_2112): x(ECE_2112)(OIE_MA_SCI) + x(ECE_2112)(OIE_SCI)
 + x(ECE_2112)(OIE_TECH_ELECT) - y(ECE_2112) <= 0
setY1(ECON_2910): x(ECON_2910)(SOC_SCI_REQ) - y(ECON_2910) <= 0
setY1(ES_ANY): x(ES_ANY)(OIE_ES) + x(ES_ANY)(OIE_TECH_ELECT) - y(ES_ANY) <= 0
setY1(FLG_CON): x(FLG_CON)(HUA_CORE) - y(FLG_CON) <= 0
setY1(HI_CON): x(HI_CON)(HUA_CORE) - y(HI_CON) <= 0
setY1(HUA_PROJ): x(HUA_PROJ)(HUA_PROJ) - y(HUA_PROJ) <= 0
setY1(ID_2050): x(ID_2050)(SOC_SCI_REQ) - y(ID_2050) <= 0
setY1(IQP_OFF_CM): x(IQP_OFF_CM)(IQP) - y(IQP_OFF_CM) <= 0
setY1(IQP_ON_CM): x(IQP_ON_CM)(IQP) - y(IQP_ON_CM) <= 0
setY1(MA_1033): x(MA_1033)(OIE_CALC_III) - y(MA_1033) <= 0
setY1(MA_2631): x(MA_2631)(OIE_MA_SCI) + x(MA_2631)(OIE_STATS_II) - y(MA_2631)
 <= 0
setY1(MA_3000P): x(MA_3000P)(OIE_MA_SCI) - y(MA_3000P) <= 0
setY1(MA_3631): x(MA_3631)(OIE_ELECT) + x(MA_3631)(OIE_MA_SCI)
 + x(MA_3631)(OIE_TECH_ELECT) - y(MA_3631) <= 0
setY1(MA_ANY): x(MA_ANY)(OIE_MA_SCI) - y(MA_ANY) <= 0
setY1(NUM_METHD): x(NUM_METHD)(OIE_MA_SCI) + x(NUM_METHD)(OIE_TECH_ELECT)
 - y(NUM_METHD) <= 0
setY1(OIE_3600): x(OIE_3600)(OIE_CS) + x(OIE_3600)(OIE_ELECT)
 + x(OIE_3600)(OIE_TECH_ELECT) - y(OIE_3600) <= 0
setY1(OIE_CHOICE): x(OIE_CHOICE)(OIE_44_34) + x(OIE_CHOICE)(OIE_ELECT)
 + x(OIE_CHOICE)(OIE_TECH_ELECT) - y(OIE_CHOICE) <= 0
setY1(OIE_CORE): x(OIE_CORE)(OIE_CORE) - y(OIE_CORE) <= 0
setY1(OIE_ENG_ELECT): x(OIE_ENG_ELECT)(OIE_TECH_ELECT) - y(OIE_ENG_ELECT) <= 0
setY1(OIE_ES_RESTR): x(OIE_ES_RESTR)(OIE_ES) + x(OIE_ES_RESTR)(OIE_TECH_ELECT)
 - y(OIE_ES_RESTR) <= 0
setY1(OIE_MA_ELECT): x(OIE_MA_ELECT)(OIE_ELECT) + x(OIE_MA_ELECT)(OIE_MA_SCI)
 + x(OIE_MA_ELECT)(OIE_TECH_ELECT) - y(OIE_MA_ELECT) <= 0
setY1(OIE_MIS_ELECT): x(OIE_MIS_ELECT)(OIE_ELECT)
 + x(OIE_MIS_ELECT)(OIE_TECH_ELECT) - y(OIE_MIS_ELECT) <= 0
setY1(OIE_OTHER): x(OIE_OTHER)(OIE_ELECT) + x(OIE_OTHER)(OIE_TECH_ELECT)
 - y(OIE_OTHER) <= 0
setY1(OTHR_SCI): x(OTHR_SCI)(OIE_MA_SCI) - y(OTHR_SCI) <= 0
setY1(PH_ANY): x(PH_ANY)(OIE_MA_SCI) + x(PH_ANY)(OIE_SCI) - y(PH_ANY) <= 0
setY1(PROB_STATS): x(PROB_STATS)(OIE_MA_SCI) + x(PROB_STATS)(OIE_STATS_II)
 - y(PROB_STATS) <= 0
setY1(PY_CON): x(PY_CON)(HUA_CORE) - y(PY_CON) <= 0
setY1(REAL_ALYS): x(REAL_ALYS)(OIE_MA_SCI) - y(REAL_ALYS) <= 0
setY1(REG_SCI_ES): x(REG_SCI_ES)(OIE_MA_SCI) + x(REG_SCI_ES)(OIE_SCI)
 - y(REG_SCI_ES) <= 0
setY1(STATS_1): x(STATS_1)(OIE_STATS_I) - y(STATS_1) <= 0
setY1(TRANSIT_LL): x(TRANSIT_LL)(OIE_MA_SCI) - y(TRANSIT_LL) <= 0
setY1(TRANSIT_R): x(TRANSIT_R)(OIE_MA_SCI) - y(TRANSIT_R) <= 0
setY1(WR_CON): x(WR_CON)(HUA_CORE) - y(WR_CON) <= 0
setY2(ABS_ALG): x(ABS_ALG)(MA_ABSTR) + x(ABS_ALG)(MA_INTRO)
 + x(ABS_ALG)(MA_TRANSIT) + x(ABS_ALG)(MA_UPRLVL) - y(ABS_ALG) <= 0
setY2(ALL_SOC_SCI): x(ALL_SOC_SCI)(SOC_SCI_REQ) - y(ALL_SOC_SCI) <= 0
setY2(ART_CON): x(ART_CON)(HUA_CORE) - y(ART_CON) <= 0
setY2(BB_4190): x(BB_4190)(MA_GEN_SCI) + x(BB_4190)(MA_REL_CR) - y(BB_4190)
 <= 0
setY2(BUS_SCH_ELECT): x(BUS_SCH_ELECT)(MA_REL_CR) - y(BUS_SCH_ELECT) <= 0
setY2(CALC_I): x(CALC_I)(MA_INTRO) - y(CALC_I) <= 0
setY2(CALC_II): x(CALC_II)(MA_INTRO) - y(CALC_II) <= 0
setY2(CALC_III): x(CALC_III)(MA_INTRO) - y(CALC_III) <= 0
setY2(CALC_IV): x(CALC_IV)(MA_INTRO) - y(CALC_IV) <= 0
setY2(CH_ANY): x(CH_ANY)(MA_GEN_SCI) + x(CH_ANY)(MA_REL_CR) - y(CH_ANY) <= 0
setY2(CS_2022): x(CS_2022)(MA_CS_DS) + x(CS_2022)(MA_INTRO)
 + x(CS_2022)(MA_REL_CR) - y(CS_2022) <= 0
setY2(CS_21XX): x(CS_21XX)(MA_CS_DS) + x(CS_21XX)(MA_REL_CR) - y(CS_21XX) <= 0
setY2(CS_3043): x(CS_3043)(MA_CS_DS) + x(CS_3043)(MA_REL_CR) - y(CS_3043) <= 0
setY2(CS_DEPT): x(CS_DEPT)(MA_CS_DS) + x(CS_DEPT)(MA_REL_CR) - y(CS_DEPT) <= 0
setY2(DIF_EQ): x(DIF_EQ)(MA_INTRO) - y(DIF_EQ) <= 0
setY2(DS_4635): x(DS_4635)(MA_CS_DS) + x(DS_4635)(MA_INTRO)
 + x(DS_4635)(MA_REL_CR) + x(DS_4635)(MA_UPRLVL) - y(DS_4635) <= 0
setY2(DS_DEPT): x(DS_DEPT)(MA_CS_DS) + x(DS_DEPT)(MA_REL_CR) - y(DS_DEPT) <= 0
setY2(ECON_2910): x(ECON_2910)(MA_REL_CR) + x(ECON_2910)(SOC_SCI_REQ)
 - y(ECON_2910) <= 0
setY2(ES_ANY): x(ES_ANY)(MA_GEN_SCI) + x(ES_ANY)(MA_REL_CR) - y(ES_ANY) <= 0
setY2(FLG_CON): x(FLG_CON)(HUA_CORE) - y(FLG_CON) <= 0
setY2(HI_CON): x(HI_CON)(HUA_CORE) - y(HI_CON) <= 0
setY2(HUA_PROJ): x(HUA_PROJ)(HUA_PROJ) - y(HUA_PROJ) <= 0
setY2(ID_2050): x(ID_2050)(SOC_SCI_REQ) - y(ID_2050) <= 0
setY2(IQP_OFF_CM): x(IQP_OFF_CM)(IQP) - y(IQP_OFF_CM) <= 0
setY2(IQP_ON_CM): x(IQP_ON_CM)(IQP) - y(IQP_ON_CM) <= 0
setY2(MA_1033): x(MA_1033)(MA_INTRO) + x(MA_1033)(MA_TRANSIT) - y(MA_1033)
 <= 0
setY2(MA_2631): x(MA_2631)(MA_INTRO) + x(MA_2631)(MA_TRANSIT) - y(MA_2631)
 <= 0
setY2(MA_3000P): x(MA_3000P)(MA_INTRO) + x(MA_3000P)(MA_UPRLVL) - y(MA_3000P)
 <= 0
setY2(MA_3631): x(MA_3631)(MA_INTRO) + x(MA_3631)(MA_TRANSIT)
 + x(MA_3631)(MA_UPRLVL) - y(MA_3631) <= 0
setY2(MA_ANY): x(MA_ANY)(MA_INTRO) - y(MA_ANY) <= 0
setY2(NUM_METHD): x(NUM_METHD)(MA_INTRO) + x(NUM_METHD)(MA_NMTHD)
 + x(NUM_METHD)(MA_UPRLVL) - y(NUM_METHD) <= 0
setY2(OIE_3600): x(OIE_3600)(MA_REL_CR) - y(OIE_3600) <= 0
setY2(OIE_CHOICE): x(OIE_CHOICE)(MA_REL_CR) - y(OIE_CHOICE) <= 0
setY2(OIE_CORE): x(OIE_CORE)(MA_REL_CR) - y(OIE_CORE) <= 0
setY2(OIE_ENG_RESTR): x(OIE_ENG_RESTR)(MA_CS_DS) + x(OIE_ENG_RESTR)(MA_REL_CR)
 - y(OIE_ENG_RESTR) <= 0
setY2(OIE_ES_RESTR): x(OIE_ES_RESTR)(MA_GEN_SCI) + x(OIE_ES_RESTR)(MA_REL_CR)
 - y(OIE_ES_RESTR) <= 0
setY2(OIE_MA_ELECT): x(OIE_MA_ELECT)(MA_INTRO) + x(OIE_MA_ELECT)(MA_UPRLVL)
 - y(OIE_MA_ELECT) <= 0
setY2(OIE_OTHER): x(OIE_OTHER)(MA_REL_CR) - y(OIE_OTHER) <= 0
setY2(OTHR_SCI): x(OTHR_SCI)(MA_GEN_SCI) + x(OTHR_SCI)(MA_REL_CR)
 - y(OTHR_SCI) <= 0
setY2(PH_ANY): x(PH_ANY)(MA_GEN_SCI) + x(PH_ANY)(MA_REL_CR) - y(PH_ANY) <= 0
setY2(PROB_STATS): x(PROB_STATS)(MA_INTRO) - y(PROB_STATS) <= 0
setY2(PY_CON): x(PY_CON)(HUA_CORE) - y(PY_CON) <= 0
setY2(REAL_ALYS): x(REAL_ALYS)(MA_INTRO) + x(REAL_ALYS)(MA_REAL)
 + x(REAL_ALYS)(MA_TRANSIT) + x(REAL_ALYS)(MA_UPRLVL) - y(REAL_ALYS) <= 0
setY2(REG_SCI_ES): x(REG_SCI_ES)(MA_GEN_SCI) + x(REG_SCI_ES)(MA_REL_CR)
 - y(REG_SCI_ES) <= 0
setY2(STATS_1): x(STATS_1)(MA_INTRO) - y(STATS_1) <= 0
setY2(TRANSIT_LL): x(TRANSIT_LL)(MA_INTRO) + x(TRANSIT_LL)(MA_TRANSIT)
 - y(TRANSIT_LL) <= 0
setY2(TRANSIT_R): x(TRANSIT_R)(MA_INTRO) + x(TRANSIT_R)(MA_TRANSIT)
 - y(TRANSIT_R) <= 0
setY2(WR_CON): x(WR_CON)(HUA_CORE) - y(WR_CON) <= 0
Bounds
 0 <= x(ABS_ALG)(MA_ABSTR) <= 2
 0 <= x(ABS_ALG)(MA_INTRO) <= 2
 0 <= x(ABS_ALG)(MA_TRANSIT) <= 2
 0 <= x(ABS_ALG)(MA_UPRLVL) <= 2
 0 <= x(ABS_ALG)(OIE_MA_SCI) <= 2
 0 <= x(ALL_SOC_SCI)(SOC_SCI_REQ) <= 60
 0 <= x(ART_CON)(HUA_CORE) <= 20
 0 <= x(BUS_SCH_ELECT)(MA_REL_CR) <= 50
 0 <= x(CALC_IV)(MA_INTRO) <= 2
 0 <= x(CALC_IV)(OIE_CALC_IV) <= 2
 0 <= x(CH_ANY)(MA_GEN_SCI) <= 30
 0 <= x(CH_ANY)(MA_REL_CR) <= 30
 0 <= x(CH_ANY)(OIE_MA_SCI) <= 30
 0 <= x(CH_ANY)(OIE_SCI) <= 30
 0 <= x(CS_21XX)(MA_CS_DS) <= 3
 0 <= x(CS_21XX)(MA_REL_CR) <= 3
 0 <= x(CS_21XX)(OIE_CS) <= 3
 0 <= x(CS_21XX)(OIE_TECH_ELECT) <= 3
 0 <= x(CS_DEPT)(MA_CS_DS) <= 31
 0 <= x(CS_DEPT)(MA_REL_CR) <= 31
 0 <= x(CS_DEPT)(OIE_TECH_ELECT) <= 31
 0 <= x(DS_4635)(MA_CS_DS) <= 2
 0 <= x(DS_4635)(MA_INTRO) <= 2
 0 <= x(DS_4635)(MA_REL_CR) <= 2
 0 <= x(DS_4635)(MA_UPRLVL) <= 2
 0 <= x(DS_4635)(OIE_MA_SCI) <= 2
 0 <= x(DS_DEPT)(MA_CS_DS) <= 20
 0 <= x(DS_DEPT)(MA_REL_CR) <= 20
 0 <= x(ES_ANY)(MA_GEN_SCI) <= 30
 0 <= x(ES_ANY)(MA_REL_CR) <= 30
 0 <= x(ES_ANY)(OIE_ES) <= 30
 0 <= x(ES_ANY)(OIE_TECH_ELECT) <= 30
 0 <= x(FLG_CON)(HUA_CORE) <= 20
 0 <= x(HI_CON)(HUA_CORE) <= 20
 0 <= x(HUA_PROJ)(HUA_PROJ) <= 2
 0 <= x(IQP_OFF_CM)(IQP) <= 4
 0 <= x(MA_3000P)(MA_INTRO) <= 14
 0 <= x(MA_3000P)(MA_UPRLVL) <= 14
 0 <= x(MA_3000P)(OIE_MA_SCI) <= 14
 0 <= x(MA_ANY)(MA_INTRO) <= 7
 0 <= x(MA_ANY)(OIE_MA_SCI) <= 7
 0 <= x(NUM_METHD)(MA_INTRO) <= 2
 0 <= x(NUM_METHD)(MA_NMTHD) <= 2
 0 <= x(NUM_METHD)(MA_UPRLVL) <= 2
 0 <= x(NUM_METHD)(OIE_MA_SCI) <= 2
 0 <= x(NUM_METHD)(OIE_TECH_ELECT) <= 2
 0 <= x(OIE_CHOICE)(MA_REL_CR) <= 2
 0 <= x(OIE_CHOICE)(OIE_44_34) <= 2
 0 <= x(OIE_CHOICE)(OIE_ELECT) <= 2
 0 <= x(OIE_CHOICE)(OIE_TECH_ELECT) <= 2
 0 <= x(OIE_CORE)(MA_REL_CR) <= 7
 0 <= x(OIE_CORE)(OIE_CORE) <= 7
 0 <= x(OIE_ENG_ELECT)(OIE_TECH_ELECT) <= 50
 0 <= x(OIE_ENG_RESTR)(MA_CS_DS) <= 3
 0 <= x(OIE_ENG_RESTR)(MA_REL_CR) <= 3
 0 <= x(OIE_MA_ELECT)(MA_INTRO) <= 7
 0 <= x(OIE_MA_ELECT)(MA_UPRLVL) <= 7
 0 <= x(OIE_MA_ELECT)(OIE_ELECT) <= 7
 0 <= x(OIE_MA_ELECT)(OIE_MA_SCI) <= 7
 0 <= x(OIE_MA_ELECT)(OIE_TECH_ELECT) <= 7
 0 <= x(OIE_MIS_ELECT)(OIE_ELECT) <= 4
 0 <= x(OIE_MIS_ELECT)(OIE_TECH_ELECT) <= 4
 0 <= x(OIE_OTHER)(MA_REL_CR) <= 2
 0 <= x(OIE_OTHER)(OIE_ELECT) <= 2
 0 <= x(OIE_OTHER)(OIE_TECH_ELECT) <= 2
 0 <= x(OTHR_SCI)(MA_GEN_SCI) <= 30
 0 <= x(OTHR_SCI)(MA_REL_CR) <= 30
 0 <= x(OTHR_SCI)(OIE_MA_SCI) <= 30
 0 <= x(PH_ANY)(MA_GEN_SCI) <= 30
 0 <= x(PH_ANY)(MA_REL_CR) <= 30
 0 <= x(PH_ANY)(OIE_MA_SCI) <= 30
 0 <= x(PH_ANY)(OIE_SCI) <= 30
 0 <= x(PROB_STATS)(MA_INTRO) <= 2
 0 <= x(PROB_STATS)(OIE_MA_SCI) <= 2
 0 <= x(PROB_STATS)(OIE_STATS_II) <= 2
 0 <= x(PY_CON)(HUA_CORE) <= 20
 0 <= x(REAL_ALYS)(MA_INTRO) <= 2
 0 <= x(REAL_ALYS)(MA_REAL) <= 2
 0 <= x(REAL_ALYS)(MA_TRANSIT) <= 2
 0 <= x(REAL_ALYS)(MA_UPRLVL) <= 2
 0 <= x(REAL_ALYS)(OIE_MA_SCI) <= 2
 0 <= x(TRANSIT_R)(MA_INTRO) <= 6
 0 <= x(TRANSIT_R)(MA_TRANSIT) <= 6
 0 <= x(TRANSIT_R)(OIE_MA_SCI) <= 6
 0 <= x(WR_CON)(HUA_CORE) <= 20
 0 <= y(ABS_ALG) <= 2
 0 <= y(ALL_SOC_SCI) <= 60
 0 <= y(ART_CON) <= 20
 0 <= y(BUS_SCH_ELECT) <= 50
 0 <= y(CALC_IV) <= 2
 0 <= y(CH_ANY) <= 30
 0 <= y(CS_21XX) <= 3
 0 <= y(CS_DEPT) <= 31
 0 <= y(DS_4635) <= 2
 0 <= y(DS_DEPT) <= 20
 0 <= y(ES_ANY) <= 30
 0 <= y(FLG_CON) <= 20
 0 <= y(HI_CON) <= 20
 0 <= y(HUA_PROJ) <= 2
 0 <= y(IQP_OFF_CM) <= 4
 0 <= y(MA_3000P) <= 14
 0 <= y(MA_ANY) <= 7
 0 <= y(NUM_METHD) <= 2
 0 <= y(OIE_CHOICE) <= 2
 0 <= y(OIE_CORE) <= 7
 0 <= y(OIE_ENG_ELECT) <= 50
 0 <= y(OIE_ENG_RESTR) <= 3
 0 <= y(OIE_MA_ELECT) <= 7
 0 <= y(OIE_MIS_ELECT) <= 4
 0 <= y(OIE_OTHER) <= 2
 0 <= y(OTHR_SCI) <= 30
 0 <= y(PH_ANY) <= 30
 0 <= y(PROB_STATS) <= 2
 0 <= y(PY_CON) <= 20
 0 <= y(REAL_ALYS) <= 2
 0 <= y(TRANSIT_R) <= 6
 0 <= y(WR_CON) <= 20
 0 <= z(HUA_CORE)
 0 <= z(HUA_PROJ)
 0 <= z(IQP)
 0 <= z(MA_ABSTR)
 0 <= z(MA_CS_DS)
 0 <= z(MA_GEN_SCI)
 0 <= z(MA_INTRO)
 0 <= z(MA_NMTHD)
 0 <= z(MA_REAL)
 0 <= z(MA_REL_CR)
 0 <= z(MA_TRANSIT)
 0 <= z(MA_UPRLVL)
 0 <= z(OIE_44_34)
 0 <= z(OIE_CALC_I)
 0 <= z(OIE_CALC_II)
 0 <= z(OIE_CALC_III)
 0 <= z(OIE_CALC_IV)
 0 <= z(OIE_CORE)
 0 <= z(OIE_CS)
 0 <= z(OIE_DIFEQ)
 0 <= z(OIE_ELECT)
 0 <= z(OIE_ES)
 0 <= z(OIE_MA_SCI)
 0 <= z(OIE_SCI)
 0 <= z(OIE_STATS_I)
 0 <= z(OIE_STATS_II)
 0 <= z(OIE_TECH_ELECT)
 0 <= z(SOC_SCI_REQ)
Generals
x(ABS_ALG)(MA_ABSTR)
x(ABS_ALG)(MA_INTRO)
x(ABS_ALG)(MA_TRANSIT)
x(ABS_ALG)(MA_UPRLVL)
x(ABS_ALG)(OIE_MA_SCI)
x(ALL_SOC_SCI)(SOC_SCI_REQ)
x(ART_CON)(HUA_CORE)
x(BUS_SCH_ELECT)(MA_REL_CR)
x(CALC_IV)(MA_INTRO)
x(CALC_IV)(OIE_CALC_IV)
x(CH_ANY)(MA_GEN_SCI)
x(CH_ANY)(MA_REL_CR)
x(CH_ANY)(OIE_MA_SCI)
x(CH_ANY)(OIE_SCI)
x(CS_21XX)(MA_CS_DS)
x(CS_21XX)(MA_REL_CR)
x(CS_21XX)(OIE_CS)
x(CS_21XX)(OIE_TECH_ELECT)
x(CS_DEPT)(MA_CS_DS)
x(CS_DEPT)(MA_REL_CR)
x(CS_DEPT)(OIE_TECH_ELECT)
x(DS_4635)(MA_CS_DS)
x(DS_4635)(MA_INTRO)
x(DS_4635)(MA_REL_CR)
x(DS_4635)(MA_UPRLVL)
x(DS_4635)(OIE_MA_SCI)
x(DS_DEPT)(MA_CS_DS)
x(DS_DEPT)(MA_REL_CR)
x(ES_ANY)(MA_GEN_SCI)
x(ES_ANY)(MA_REL_CR)
x(ES_ANY)(OIE_ES)
x(ES_ANY)(OIE_TECH_ELECT)
x(FLG_CON)(HUA_CORE)
x(HI_CON)(HUA_CORE)
x(HUA_PROJ)(HUA_PROJ)
x(IQP_OFF_CM)(IQP)
x(MA_3000P)(MA_INTRO)
x(MA_3000P)(MA_UPRLVL)
x(MA_3000P)(OIE_MA_SCI)
x(MA_ANY)(MA_INTRO)
x(MA_ANY)(OIE_MA_SCI)
x(NUM_METHD)(MA_INTRO)
x(NUM_METHD)(MA_NMTHD)
x(NUM_METHD)(MA_UPRLVL)
x(NUM_METHD)(OIE_MA_SCI)
x(NUM_METHD)(OIE_TECH_ELECT)
x(OIE_CHOICE)(MA_REL_CR)
x(OIE_CHOICE)(OIE_44_34)
x(OIE_CHOICE)(OIE_ELECT)
x(OIE_CHOICE)(OIE_TECH_ELECT)
x(OIE_CORE)(MA_REL_CR)
x(OIE_CORE)(OIE_CORE)
x(OIE_ENG_ELECT)(OIE_TECH_ELECT)
x(OIE_ENG_RESTR)(MA_CS_DS)
x(OIE_ENG_RESTR)(MA_REL_CR)
x(OIE_MA_ELECT)(MA_INTRO)
x(OIE_MA_ELECT)(MA_UPRLVL)
x(OIE_MA_ELECT)(OIE_ELECT)
x(OIE_MA_ELECT)(OIE_MA_SCI)
x(OIE_MA_ELECT)(OIE_TECH_ELECT)
x(OIE_MIS_ELECT)(OIE_ELECT)
x(OIE_MIS_ELECT)(OIE_TECH_ELECT)
x(OIE_OTHER)(MA_REL_CR)
x(OIE_OTHER)(OIE_ELECT)
x(OIE_OTHER)(OIE_TECH_ELECT)
x(OTHR_SCI)(MA_GEN_SCI)
x(OTHR_SCI)(MA_REL_CR)
x(OTHR_SCI)(OIE_MA_SCI)
x(PH_ANY)(MA_GEN_SCI)
x(PH_ANY)(MA_REL_CR)
x(PH_ANY)(OIE_MA_SCI)
x(PH_ANY)(OIE_SCI)
x(PROB_STATS)(MA_INTRO)
x(PROB_STATS)(OIE_MA_SCI)
x(PROB_STATS)(OIE_STATS_II)
x(PY_CON)(HUA_CORE)
x(REAL_ALYS)(MA_INTRO)
x(REAL_ALYS)(MA_REAL)
x(REAL_ALYS)(MA_TRANSIT)
x(REAL_ALYS)(MA_UPRLVL)
x(REAL_ALYS)(OIE_MA_SCI)
x(TRANSIT_R)(MA_INTRO)
x(TRANSIT_R)(MA_TRANSIT)
x(TRANSIT_R)(OIE_MA_SCI)
x(WR_CON)(HUA_CORE)
y(ABS_ALG)
y(ALL_SOC_SCI)
y(ART_CON)
y(BUS_SCH_ELECT)
y(CALC_IV)
y(CH_ANY)
y(CS_21XX)
y(CS_DEPT)
y(DS_4635)
y(DS_DEPT)
y(ES_ANY)
y(FLG_CON)
y(HI_CON)
y(HUA_PROJ)
y(IQP_OFF_CM)
y(MA_3000P)
y(MA_ANY)
y(NUM_METHD)
y(OIE_CHOICE)
y(OIE_CORE)
y(OIE_ENG_ELECT)
y(OIE_ENG_RESTR)
y(OIE_MA_ELECT)
y(OIE_MIS_ELECT)
y(OIE_OTHER)
y(OTHR_SCI)
y(PH_ANY)
y(PROB_STATS)
y(PY_CON)
y(REAL_ALYS)
y(TRANSIT_R)
y(WR_CON)
Binaries
SR2(HUA_DEPTH_0)
SR2(HUA_DEPTH_1)
SR2(HUA_DEPTH_2)
SR2(HUA_DEPTH_3)
SR2(HUA_DEPTH_4)
x(BB_4190)(MA_GEN_SCI)
x(BB_4190)(MA_REL_CR)
x(BB_4190)(OIE_MA_SCI)
x(BB_4190)(OIE_SCI)
x(BCB_4004)(OIE_MA_SCI)
x(CALC_I)(MA_INTRO)
x(CALC_I)(OIE_CALC_I)
x(CALC_II)(MA_INTRO)
x(CALC_II)(OIE_CALC_II)
x(CALC_III)(MA_INTRO)
x(CALC_III)(OIE_CALC_III)
x(CS_2022)(MA_CS_DS)
x(CS_2022)(MA_INTRO)
x(CS_2022)(MA_REL_CR)
x(CS_2022)(OIE_MA_SCI)
x(CS_2022)(OIE_TECH_ELECT)
x(CS_3043)(MA_CS_DS)
x(CS_3043)(MA_REL_CR)
x(CS_3043)(OIE_TECH_ELECT)
x(DIF_EQ)(MA_INTRO)
x(DIF_EQ)(OIE_DIFEQ)
x(ECE_2112)(OIE_MA_SCI)
x(ECE_2112)(OIE_SCI)
x(ECE_2112)(OIE_TECH_ELECT)
x(ECON_2910)(MA_REL_CR)
x(ECON_2910)(SOC_SCI_REQ)
x(ID_2050)(SOC_SCI_REQ)
x(IQP_ON_CM)(IQP)
x(MA_1033)(MA_INTRO)
x(MA_1033)(MA_TRANSIT)
x(MA_1033)(OIE_CALC_III)
x(MA_2631)(MA_INTRO)
x(MA_2631)(MA_TRANSIT)
x(MA_2631)(OIE_MA_SCI)
x(MA_2631)(OIE_STATS_II)
x(MA_3631)(MA_INTRO)
x(MA_3631)(MA_TRANSIT)
x(MA_3631)(MA_UPRLVL)
x(MA_3631)(OIE_ELECT)
x(MA_3631)(OIE_MA_SCI)
x(MA_3631)(OIE_TECH_ELECT)
x(OIE_3600)(MA_REL_CR)
x(OIE_3600)(OIE_CS)
x(OIE_3600)(OIE_ELECT)
x(OIE_3600)(OIE_TECH_ELECT)
x(OIE_ES_RESTR)(MA_GEN_SCI)
x(OIE_ES_RESTR)(MA_REL_CR)
x(OIE_ES_RESTR)(OIE_ES)
x(OIE_ES_RESTR)(OIE_TECH_ELECT)
x(REG_SCI_ES)(MA_GEN_SCI)
x(REG_SCI_ES)(MA_REL_CR)
x(REG_SCI_ES)(OIE_MA_SCI)
x(REG_SCI_ES)(OIE_SCI)
x(STATS_1)(MA_INTRO)
x(STATS_1)(OIE_STATS_I)
x(TRANSIT_LL)(MA_INTRO)
x(TRANSIT_LL)(MA_TRANSIT)
x(TRANSIT_LL)(OIE_MA_SCI)
y(BB_4190)
y(BCB_4004)
y(CALC_I)
y(CALC_II)
y(CALC_III)
y(CE_3022)
y(CS_2022)
y(CS_3043)
y(DIF_EQ)
y(ECE_2112)
y(ECON_2910)
y(ID_2050)
y(IQP_ON_CM)
y(MA_1033)
y(MA_2631)
y(MA_3631)
y(OIE_3600)
y(OIE_ES_RESTR)
y(REG_SCI_ES)
y(STATS_1)
y(TRANSIT_LL)
End
